<?xml version = "1.0" encoding="UTF-8" standalone="yes"?>
<CPLEXSolution version="1.2">
 <header
   problemName=""
   objectiveValue="3"
   solutionTypeValue="1"
   solutionTypeString="basic"
   solutionStatusValue="1"
   solutionStatusString="optimal"
   solutionMethodString="dual"
   primalFeasible="1"
   dualFeasible="1"
   simplexIterations="2"
   writeLevel="1"/>
 <quality
   epRHS="9.9999999999999995e-07"
   epOpt="9.9999999999999995e-07"
   maxPrimalInfeas="0"
   maxDualInfeas="0"
   maxPrimalResidual="0"
   maxDualResidual="0"
   maxX="1"
   maxPi="1"
   maxSlack="12"
   maxRedCost="0"
   kappa="14.13184226015303"/>
 <linearConstraints>
  <constraint name="R0" index="0" status="BS" slack="-0" dual="-0"/>
  <constraint name="R1" index="1" status="BS" slack="-1" dual="-0"/>
  <constraint name="R2" index="2" status="BS" slack="-1" dual="-0"/>
  <constraint name="R3" index="3" status="BS" slack="-2" dual="-0"/>
  <constraint name="R4" index="4" status="BS" slack="-1" dual="-0"/>
  <constraint name="R5" index="5" status="BS" slack="-1" dual="-0"/>
  <constraint name="R6" index="6" status="BS" slack="-0" dual="-0"/>
  <constraint name="R7" index="7" status="LL" slack="0" dual="0"/>
  <constraint name="R8" index="8" status="LL" slack="0" dual="0"/>
  <constraint name="C18" index="9" status="BS" slack="-4" dual="-0"/>
  <constraint name="C19" index="10" status="BS" slack="-2" dual="-0"/>
  <constraint name="C20" index="11" status="BS" slack="-2" dual="-0"/>
  <constraint name="C21" index="12" status="BS" slack="-2" dual="-0"/>
  <constraint name="C22" index="13" status="BS" slack="-3" dual="-0"/>
  <constraint name="C23" index="14" status="BS" slack="-3" dual="-0"/>
  <constraint name="C24" index="15" status="BS" slack="-3" dual="-0"/>
  <constraint name="C25" index="16" status="BS" slack="-3" dual="-0"/>
  <constraint name="C26" index="17" status="BS" slack="-3" dual="-0"/>
  <constraint name="C27" index="18" status="BS" slack="-3" dual="-0"/>
  <constraint name="C28" index="19" status="BS" slack="-3" dual="-0"/>
  <constraint name="C29" index="20" status="BS" slack="-3" dual="-0"/>
  <constraint name="C30" index="21" status="BS" slack="-3" dual="-0"/>
  <constraint name="C31" index="22" status="BS" slack="-4" dual="-0"/>
  <constraint name="C32" index="23" status="BS" slack="-4" dual="-0"/>
  <constraint name="C33" index="24" status="BS" slack="-4" dual="-0"/>
  <constraint name="C34" index="25" status="BS" slack="-4" dual="-0"/>
  <constraint name="C35" index="26" status="BS" slack="-4" dual="-0"/>
  <constraint name="C36" index="27" status="BS" slack="-4" dual="-0"/>
  <constraint name="C37" index="28" status="BS" slack="-8" dual="-0"/>
  <constraint name="C38" index="29" status="BS" slack="-8" dual="-0"/>
  <constraint name="C39" index="30" status="BS" slack="-9" dual="-0"/>
  <constraint name="C40" index="31" status="BS" slack="-8" dual="-0"/>
  <constraint name="C41" index="32" status="BS" slack="-7" dual="-0"/>
  <constraint name="C42" index="33" status="BS" slack="-8" dual="-0"/>
  <constraint name="C43" index="34" status="BS" slack="-5" dual="-0"/>
  <constraint name="C44" index="35" status="BS" slack="-5" dual="-0"/>
  <constraint name="C45" index="36" status="BS" slack="-5" dual="-0"/>
  <constraint name="C46" index="37" status="BS" slack="-4" dual="-0"/>
  <constraint name="C47" index="38" status="BS" slack="-4" dual="-0"/>
  <constraint name="C48" index="39" status="BS" slack="-4" dual="-0"/>
  <constraint name="C49" index="40" status="BS" slack="-5" dual="-0"/>
  <constraint name="C50" index="41" status="BS" slack="-6" dual="-0"/>
  <constraint name="C51" index="42" status="BS" slack="-4" dual="-0"/>
  <constraint name="C52" index="43" status="BS" slack="-5" dual="-0"/>
  <constraint name="C53" index="44" status="BS" slack="-4" dual="-0"/>
  <constraint name="C54" index="45" status="BS" slack="-5" dual="-0"/>
  <constraint name="C55" index="46" status="BS" slack="-4" dual="-0"/>
  <constraint name="C56" index="47" status="BS" slack="-4" dual="-0"/>
  <constraint name="C57" index="48" status="BS" slack="-5" dual="-0"/>
  <constraint name="C58" index="49" status="BS" slack="-5" dual="-0"/>
  <constraint name="C59" index="50" status="BS" slack="-6" dual="-0"/>
  <constraint name="C60" index="51" status="BS" slack="-5" dual="-0"/>
  <constraint name="C61" index="52" status="BS" slack="-5" dual="-0"/>
  <constraint name="C62" index="53" status="BS" slack="-5" dual="-0"/>
  <constraint name="C63" index="54" status="BS" slack="-4" dual="-0"/>
  <constraint name="C64" index="55" status="BS" slack="-5" dual="-0"/>
  <constraint name="C65" index="56" status="BS" slack="-5" dual="-0"/>
  <constraint name="C66" index="57" status="BS" slack="-4" dual="-0"/>
  <constraint name="C67" index="58" status="BS" slack="-5" dual="-0"/>
  <constraint name="C68" index="59" status="BS" slack="-6" dual="-0"/>
  <constraint name="C69" index="60" status="BS" slack="-5" dual="-0"/>
  <constraint name="C70" index="61" status="BS" slack="-5" dual="-0"/>
  <constraint name="C71" index="62" status="BS" slack="-4" dual="-0"/>
  <constraint name="C72" index="63" status="BS" slack="-5" dual="-0"/>
  <constraint name="C73" index="64" status="BS" slack="-4" dual="-0"/>
  <constraint name="C74" index="65" status="BS" slack="-5" dual="-0"/>
  <constraint name="C75" index="66" status="BS" slack="-3" dual="-0"/>
  <constraint name="C76" index="67" status="BS" slack="-5" dual="-0"/>
  <constraint name="C77" index="68" status="BS" slack="-4" dual="-0"/>
  <constraint name="C78" index="69" status="BS" slack="-4" dual="-0"/>
  <constraint name="C79" index="70" status="BS" slack="-6" dual="-0"/>
  <constraint name="C80" index="71" status="BS" slack="-6" dual="-0"/>
  <constraint name="C81" index="72" status="BS" slack="-6" dual="-0"/>
  <constraint name="C82" index="73" status="BS" slack="-6" dual="-0"/>
  <constraint name="C83" index="74" status="BS" slack="-5" dual="-0"/>
  <constraint name="C84" index="75" status="BS" slack="-6" dual="-0"/>
  <constraint name="C85" index="76" status="BS" slack="-6" dual="-0"/>
  <constraint name="C86" index="77" status="BS" slack="-7" dual="-0"/>
  <constraint name="C87" index="78" status="BS" slack="-6" dual="-0"/>
  <constraint name="C88" index="79" status="BS" slack="-7" dual="-0"/>
  <constraint name="C89" index="80" status="BS" slack="-6" dual="-0"/>
  <constraint name="C90" index="81" status="BS" slack="-6" dual="-0"/>
  <constraint name="C91" index="82" status="BS" slack="-7" dual="-0"/>
  <constraint name="C92" index="83" status="BS" slack="-6" dual="-0"/>
  <constraint name="C93" index="84" status="BS" slack="-7" dual="-0"/>
  <constraint name="C94" index="85" status="BS" slack="-7" dual="-0"/>
  <constraint name="C95" index="86" status="BS" slack="-7" dual="-0"/>
  <constraint name="C96" index="87" status="BS" slack="-7" dual="-0"/>
  <constraint name="C97" index="88" status="BS" slack="-5" dual="-0"/>
  <constraint name="C98" index="89" status="BS" slack="-5" dual="-0"/>
  <constraint name="C99" index="90" status="BS" slack="-6" dual="-0"/>
  <constraint name="C100" index="91" status="BS" slack="-5" dual="-0"/>
  <constraint name="C101" index="92" status="BS" slack="-4" dual="-0"/>
  <constraint name="C102" index="93" status="BS" slack="-5" dual="-0"/>
  <constraint name="C103" index="94" status="BS" slack="-5" dual="-0"/>
  <constraint name="C104" index="95" status="BS" slack="-5" dual="-0"/>
  <constraint name="C105" index="96" status="BS" slack="-5" dual="-0"/>
  <constraint name="C106" index="97" status="BS" slack="-4" dual="-0"/>
  <constraint name="C107" index="98" status="BS" slack="-4" dual="-0"/>
  <constraint name="C108" index="99" status="BS" slack="-5" dual="-0"/>
  <constraint name="C109" index="100" status="BS" slack="-6" dual="-0"/>
  <constraint name="C110" index="101" status="BS" slack="-4" dual="-0"/>
  <constraint name="C111" index="102" status="BS" slack="-4" dual="-0"/>
  <constraint name="C112" index="103" status="BS" slack="-4" dual="-0"/>
  <constraint name="C113" index="104" status="BS" slack="-5" dual="-0"/>
  <constraint name="C114" index="105" status="BS" slack="-5" dual="-0"/>
  <constraint name="C115" index="106" status="BS" slack="-4" dual="-0"/>
  <constraint name="C116" index="107" status="BS" slack="-5" dual="-0"/>
  <constraint name="C117" index="108" status="BS" slack="-4" dual="-0"/>
  <constraint name="C118" index="109" status="BS" slack="-5" dual="-0"/>
  <constraint name="C119" index="110" status="BS" slack="-5" dual="-0"/>
  <constraint name="C120" index="111" status="BS" slack="-5" dual="-0"/>
  <constraint name="C121" index="112" status="BS" slack="-7" dual="-0"/>
  <constraint name="C122" index="113" status="BS" slack="-1" dual="-0"/>
  <constraint name="C123" index="114" status="BS" slack="-9" dual="-0"/>
  <constraint name="C124" index="115" status="BS" slack="-9" dual="-0"/>
  <constraint name="C125" index="116" status="BS" slack="-10" dual="-0"/>
  <constraint name="C126" index="117" status="BS" slack="-9" dual="-0"/>
  <constraint name="C127" index="118" status="BS" slack="-8" dual="-0"/>
  <constraint name="C128" index="119" status="BS" slack="-9" dual="-0"/>
  <constraint name="C129" index="120" status="BS" slack="-8" dual="-0"/>
  <constraint name="C130" index="121" status="BS" slack="-8" dual="-0"/>
  <constraint name="C131" index="122" status="BS" slack="-8" dual="-0"/>
  <constraint name="C132" index="123" status="BS" slack="-8" dual="-0"/>
  <constraint name="C133" index="124" status="BS" slack="-7" dual="-0"/>
  <constraint name="C134" index="125" status="BS" slack="-9" dual="-0"/>
  <constraint name="C135" index="126" status="BS" slack="-8" dual="-0"/>
  <constraint name="C136" index="127" status="BS" slack="-8" dual="-0"/>
  <constraint name="C137" index="128" status="BS" slack="-8" dual="-0"/>
  <constraint name="C138" index="129" status="BS" slack="-7" dual="-0"/>
  <constraint name="C139" index="130" status="BS" slack="-7" dual="-0"/>
  <constraint name="C140" index="131" status="BS" slack="-6" dual="-0"/>
  <constraint name="C141" index="132" status="BS" slack="-9" dual="-0"/>
  <constraint name="C142" index="133" status="BS" slack="-8" dual="-0"/>
  <constraint name="C143" index="134" status="BS" slack="-8" dual="-0"/>
  <constraint name="C144" index="135" status="BS" slack="-9" dual="-0"/>
  <constraint name="C145" index="136" status="BS" slack="-7" dual="-0"/>
  <constraint name="C146" index="137" status="BS" slack="-7" dual="-0"/>
  <constraint name="C147" index="138" status="BS" slack="-8" dual="-0"/>
  <constraint name="C148" index="139" status="BS" slack="-7" dual="-0"/>
  <constraint name="C149" index="140" status="BS" slack="-7" dual="-0"/>
  <constraint name="C150" index="141" status="BS" slack="-7" dual="-0"/>
  <constraint name="C151" index="142" status="BS" slack="-8" dual="-0"/>
  <constraint name="C152" index="143" status="BS" slack="-8" dual="-0"/>
  <constraint name="C153" index="144" status="BS" slack="-8" dual="-0"/>
  <constraint name="C154" index="145" status="BS" slack="-7" dual="-0"/>
  <constraint name="C155" index="146" status="BS" slack="-8" dual="-0"/>
  <constraint name="C156" index="147" status="BS" slack="-8" dual="-0"/>
  <constraint name="C157" index="148" status="BS" slack="-8" dual="-0"/>
  <constraint name="C158" index="149" status="BS" slack="-8" dual="-0"/>
  <constraint name="C159" index="150" status="BS" slack="-7" dual="-0"/>
  <constraint name="C160" index="151" status="BS" slack="-7" dual="-0"/>
  <constraint name="C161" index="152" status="BS" slack="-8" dual="-0"/>
  <constraint name="C162" index="153" status="BS" slack="-8" dual="-0"/>
  <constraint name="C163" index="154" status="BS" slack="-7" dual="-0"/>
  <constraint name="C164" index="155" status="BS" slack="-7" dual="-0"/>
  <constraint name="C165" index="156" status="BS" slack="-3" dual="-0"/>
  <constraint name="C166" index="157" status="BS" slack="-3" dual="-0"/>
  <constraint name="C167" index="158" status="BS" slack="-3" dual="-0"/>
  <constraint name="C168" index="159" status="BS" slack="-3" dual="-0"/>
  <constraint name="C169" index="160" status="BS" slack="-2" dual="-0"/>
  <constraint name="C170" index="161" status="BS" slack="-3" dual="-0"/>
  <constraint name="C171" index="162" status="BS" slack="-3" dual="-0"/>
  <constraint name="C172" index="163" status="BS" slack="-4" dual="-0"/>
  <constraint name="C173" index="164" status="BS" slack="-3" dual="-0"/>
  <constraint name="C174" index="165" status="BS" slack="-4" dual="-0"/>
  <constraint name="C175" index="166" status="BS" slack="-3" dual="-0"/>
  <constraint name="C176" index="167" status="BS" slack="-3" dual="-0"/>
  <constraint name="C177" index="168" status="BS" slack="-4" dual="-0"/>
  <constraint name="C178" index="169" status="BS" slack="-3" dual="-0"/>
  <constraint name="C179" index="170" status="BS" slack="-4" dual="-0"/>
  <constraint name="C180" index="171" status="BS" slack="-4" dual="-0"/>
  <constraint name="C181" index="172" status="BS" slack="-4" dual="-0"/>
  <constraint name="C182" index="173" status="BS" slack="-4" dual="-0"/>
  <constraint name="C183" index="174" status="BS" slack="-7" dual="-0"/>
  <constraint name="C184" index="175" status="BS" slack="-7" dual="-0"/>
  <constraint name="C185" index="176" status="BS" slack="-7" dual="-0"/>
  <constraint name="C186" index="177" status="BS" slack="-7" dual="-0"/>
  <constraint name="C187" index="178" status="BS" slack="-6" dual="-0"/>
  <constraint name="C188" index="179" status="BS" slack="-7" dual="-0"/>
  <constraint name="C189" index="180" status="BS" slack="-7" dual="-0"/>
  <constraint name="C190" index="181" status="BS" slack="-8" dual="-0"/>
  <constraint name="C191" index="182" status="BS" slack="-7" dual="-0"/>
  <constraint name="C192" index="183" status="BS" slack="-8" dual="-0"/>
  <constraint name="C193" index="184" status="BS" slack="-7" dual="-0"/>
  <constraint name="C194" index="185" status="BS" slack="-7" dual="-0"/>
  <constraint name="C195" index="186" status="BS" slack="-8" dual="-0"/>
  <constraint name="C196" index="187" status="BS" slack="-7" dual="-0"/>
  <constraint name="C197" index="188" status="BS" slack="-8" dual="-0"/>
  <constraint name="C198" index="189" status="BS" slack="-8" dual="-0"/>
  <constraint name="C199" index="190" status="BS" slack="-8" dual="-0"/>
  <constraint name="C200" index="191" status="BS" slack="-8" dual="-0"/>
  <constraint name="C201" index="192" status="BS" slack="-9" dual="-0"/>
  <constraint name="C202" index="193" status="BS" slack="-9" dual="-0"/>
  <constraint name="C203" index="194" status="BS" slack="-9" dual="-0"/>
  <constraint name="C204" index="195" status="BS" slack="-9" dual="-0"/>
  <constraint name="C205" index="196" status="BS" slack="-8" dual="-0"/>
  <constraint name="C206" index="197" status="BS" slack="-10" dual="-0"/>
  <constraint name="C207" index="198" status="BS" slack="-9" dual="-0"/>
  <constraint name="C208" index="199" status="BS" slack="-9" dual="-0"/>
  <constraint name="C209" index="200" status="BS" slack="-9" dual="-0"/>
  <constraint name="C210" index="201" status="BS" slack="-8" dual="-0"/>
  <constraint name="C211" index="202" status="BS" slack="-8" dual="-0"/>
  <constraint name="C212" index="203" status="BS" slack="-7" dual="-0"/>
  <constraint name="C213" index="204" status="BS" slack="-10" dual="-0"/>
  <constraint name="C214" index="205" status="BS" slack="-9" dual="-0"/>
  <constraint name="C215" index="206" status="BS" slack="-9" dual="-0"/>
  <constraint name="C216" index="207" status="BS" slack="-10" dual="-0"/>
  <constraint name="C217" index="208" status="BS" slack="-8" dual="-0"/>
  <constraint name="C218" index="209" status="BS" slack="-8" dual="-0"/>
  <constraint name="C219" index="210" status="BS" slack="-9" dual="-0"/>
  <constraint name="C220" index="211" status="BS" slack="-8" dual="-0"/>
  <constraint name="C221" index="212" status="BS" slack="-8" dual="-0"/>
  <constraint name="C222" index="213" status="BS" slack="-8" dual="-0"/>
  <constraint name="C223" index="214" status="BS" slack="-9" dual="-0"/>
  <constraint name="C224" index="215" status="BS" slack="-9" dual="-0"/>
  <constraint name="C225" index="216" status="BS" slack="-9" dual="-0"/>
  <constraint name="C226" index="217" status="BS" slack="-8" dual="-0"/>
  <constraint name="C227" index="218" status="BS" slack="-9" dual="-0"/>
  <constraint name="C228" index="219" status="BS" slack="-9" dual="-0"/>
  <constraint name="C229" index="220" status="BS" slack="-9" dual="-0"/>
  <constraint name="C230" index="221" status="BS" slack="-9" dual="-0"/>
  <constraint name="C231" index="222" status="BS" slack="-8" dual="-0"/>
  <constraint name="C232" index="223" status="BS" slack="-8" dual="-0"/>
  <constraint name="C233" index="224" status="BS" slack="-9" dual="-0"/>
  <constraint name="C234" index="225" status="BS" slack="-9" dual="-0"/>
  <constraint name="C235" index="226" status="BS" slack="-8" dual="-0"/>
  <constraint name="C236" index="227" status="BS" slack="-8" dual="-0"/>
  <constraint name="C237" index="228" status="BS" slack="-11" dual="-0"/>
  <constraint name="C238" index="229" status="BS" slack="-11" dual="-0"/>
  <constraint name="C239" index="230" status="BS" slack="-11" dual="-0"/>
  <constraint name="C240" index="231" status="BS" slack="-11" dual="-0"/>
  <constraint name="C241" index="232" status="BS" slack="-10" dual="-0"/>
  <constraint name="C242" index="233" status="BS" slack="-12" dual="-0"/>
  <constraint name="C243" index="234" status="BS" slack="-11" dual="-0"/>
  <constraint name="C244" index="235" status="BS" slack="-11" dual="-0"/>
  <constraint name="C245" index="236" status="BS" slack="-11" dual="-0"/>
  <constraint name="C246" index="237" status="BS" slack="-10" dual="-0"/>
  <constraint name="C247" index="238" status="BS" slack="-10" dual="-0"/>
  <constraint name="C248" index="239" status="BS" slack="-9" dual="-0"/>
  <constraint name="C249" index="240" status="BS" slack="-12" dual="-0"/>
  <constraint name="C250" index="241" status="BS" slack="-11" dual="-0"/>
  <constraint name="C251" index="242" status="BS" slack="-11" dual="-0"/>
  <constraint name="C252" index="243" status="BS" slack="-12" dual="-0"/>
  <constraint name="C253" index="244" status="BS" slack="-10" dual="-0"/>
  <constraint name="C254" index="245" status="BS" slack="-10" dual="-0"/>
  <constraint name="C255" index="246" status="BS" slack="-11" dual="-0"/>
  <constraint name="C256" index="247" status="BS" slack="-10" dual="-0"/>
  <constraint name="C257" index="248" status="BS" slack="-10" dual="-0"/>
  <constraint name="C258" index="249" status="BS" slack="-10" dual="-0"/>
  <constraint name="C259" index="250" status="BS" slack="-11" dual="-0"/>
  <constraint name="C260" index="251" status="BS" slack="-11" dual="-0"/>
  <constraint name="C261" index="252" status="BS" slack="-11" dual="-0"/>
  <constraint name="C262" index="253" status="BS" slack="-10" dual="-0"/>
  <constraint name="C263" index="254" status="BS" slack="-11" dual="-0"/>
  <constraint name="C264" index="255" status="BS" slack="-11" dual="-0"/>
  <constraint name="C265" index="256" status="BS" slack="-11" dual="-0"/>
  <constraint name="C266" index="257" status="BS" slack="-11" dual="-0"/>
  <constraint name="C267" index="258" status="BS" slack="-10" dual="-0"/>
  <constraint name="C268" index="259" status="BS" slack="-10" dual="-0"/>
  <constraint name="C269" index="260" status="BS" slack="-11" dual="-0"/>
  <constraint name="C270" index="261" status="BS" slack="-11" dual="-0"/>
  <constraint name="C271" index="262" status="BS" slack="-10" dual="-0"/>
  <constraint name="C272" index="263" status="BS" slack="-10" dual="-0"/>
  <constraint name="C273" index="264" status="BS" slack="-4" dual="-0"/>
  <constraint name="C274" index="265" status="BS" slack="-4" dual="-0"/>
  <constraint name="C275" index="266" status="BS" slack="-4" dual="-0"/>
  <constraint name="C276" index="267" status="BS" slack="-3" dual="-0"/>
  <constraint name="C277" index="268" status="BS" slack="-3" dual="-0"/>
  <constraint name="C278" index="269" status="BS" slack="-3" dual="-0"/>
  <constraint name="C279" index="270" status="BS" slack="-4" dual="-0"/>
  <constraint name="C280" index="271" status="BS" slack="-5" dual="-0"/>
  <constraint name="C281" index="272" status="BS" slack="-3" dual="-0"/>
  <constraint name="C282" index="273" status="BS" slack="-4" dual="-0"/>
  <constraint name="C283" index="274" status="BS" slack="-3" dual="-0"/>
  <constraint name="C284" index="275" status="BS" slack="-4" dual="-0"/>
  <constraint name="C285" index="276" status="BS" slack="-3" dual="-0"/>
  <constraint name="C286" index="277" status="BS" slack="-3" dual="-0"/>
  <constraint name="C287" index="278" status="BS" slack="-4" dual="-0"/>
  <constraint name="C288" index="279" status="BS" slack="-4" dual="-0"/>
  <constraint name="C289" index="280" status="BS" slack="-5" dual="-0"/>
  <constraint name="C290" index="281" status="BS" slack="-4" dual="-0"/>
  <constraint name="C291" index="282" status="BS" slack="-4" dual="-0"/>
  <constraint name="C292" index="283" status="BS" slack="-4" dual="-0"/>
  <constraint name="C293" index="284" status="BS" slack="-3" dual="-0"/>
  <constraint name="C294" index="285" status="BS" slack="-4" dual="-0"/>
  <constraint name="C295" index="286" status="BS" slack="-4" dual="-0"/>
  <constraint name="C296" index="287" status="BS" slack="-3" dual="-0"/>
  <constraint name="C297" index="288" status="BS" slack="-4" dual="-0"/>
  <constraint name="C298" index="289" status="BS" slack="-5" dual="-0"/>
  <constraint name="C299" index="290" status="BS" slack="-4" dual="-0"/>
  <constraint name="C300" index="291" status="BS" slack="-4" dual="-0"/>
  <constraint name="C301" index="292" status="BS" slack="-3" dual="-0"/>
  <constraint name="C302" index="293" status="BS" slack="-4" dual="-0"/>
  <constraint name="C303" index="294" status="BS" slack="-3" dual="-0"/>
  <constraint name="C304" index="295" status="BS" slack="-4" dual="-0"/>
  <constraint name="C305" index="296" status="BS" slack="-2" dual="-0"/>
  <constraint name="C306" index="297" status="BS" slack="-4" dual="-0"/>
  <constraint name="C307" index="298" status="BS" slack="-3" dual="-0"/>
  <constraint name="C308" index="299" status="BS" slack="-3" dual="-0"/>
  <constraint name="C309" index="300" status="BS" slack="-5" dual="-0"/>
  <constraint name="C310" index="301" status="BS" slack="-5" dual="-0"/>
  <constraint name="C311" index="302" status="BS" slack="-5" dual="-0"/>
  <constraint name="C312" index="303" status="BS" slack="-5" dual="-0"/>
  <constraint name="C313" index="304" status="BS" slack="-4" dual="-0"/>
  <constraint name="C314" index="305" status="BS" slack="-5" dual="-0"/>
  <constraint name="C315" index="306" status="BS" slack="-5" dual="-0"/>
  <constraint name="C316" index="307" status="BS" slack="-6" dual="-0"/>
  <constraint name="C317" index="308" status="BS" slack="-5" dual="-0"/>
  <constraint name="C318" index="309" status="BS" slack="-6" dual="-0"/>
  <constraint name="C319" index="310" status="BS" slack="-5" dual="-0"/>
  <constraint name="C320" index="311" status="BS" slack="-5" dual="-0"/>
  <constraint name="C321" index="312" status="BS" slack="-6" dual="-0"/>
  <constraint name="C322" index="313" status="BS" slack="-5" dual="-0"/>
  <constraint name="C323" index="314" status="BS" slack="-6" dual="-0"/>
  <constraint name="C324" index="315" status="BS" slack="-6" dual="-0"/>
  <constraint name="C325" index="316" status="BS" slack="-6" dual="-0"/>
  <constraint name="C326" index="317" status="BS" slack="-6" dual="-0"/>
  <constraint name="C327" index="318" status="BS" slack="-7" dual="-0"/>
  <constraint name="C328" index="319" status="BS" slack="-7" dual="-0"/>
  <constraint name="C329" index="320" status="BS" slack="-8" dual="-0"/>
  <constraint name="C330" index="321" status="BS" slack="-7" dual="-0"/>
  <constraint name="C331" index="322" status="BS" slack="-6" dual="-0"/>
  <constraint name="C332" index="323" status="BS" slack="-7" dual="-0"/>
  <constraint name="C333" index="324" status="BS" slack="-10" dual="-0"/>
  <constraint name="C334" index="325" status="BS" slack="-10" dual="-0"/>
  <constraint name="C335" index="326" status="BS" slack="-11" dual="-0"/>
  <constraint name="C336" index="327" status="BS" slack="-10" dual="-0"/>
  <constraint name="C337" index="328" status="BS" slack="-9" dual="-0"/>
  <constraint name="C338" index="329" status="BS" slack="-10" dual="-0"/>
  <constraint name="C35" index="330" status="LL" slack="0" dual="0"/>
  <constraint name="C35" index="331" status="BS" slack="-0" dual="-0"/>
  <constraint name="C35" index="332" status="BS" slack="-0" dual="-0"/>
  <constraint name="C35" index="333" status="BS" slack="-0" dual="-0"/>
  <constraint name="C35" index="334" status="BS" slack="-0" dual="-0"/>
  <constraint name="C35" index="335" status="BS" slack="-0" dual="-0"/>
  <constraint name="C35" index="336" status="BS" slack="-1" dual="-0"/>
  <constraint name="C35" index="337" status="BS" slack="-0" dual="-0"/>
  <constraint name="C35" index="338" status="BS" slack="-1" dual="-0"/>
  <constraint name="C35" index="339" status="BS" slack="-0" dual="-0"/>
  <constraint name="C35" index="340" status="BS" slack="-2" dual="-0"/>
  <constraint name="C35" index="341" status="BS" slack="-1" dual="-0"/>
  <constraint name="C35" index="342" status="BS" slack="-1" dual="-0"/>
  <constraint name="C35" index="343" status="BS" slack="-1" dual="-0"/>
  <constraint name="C35" index="344" status="BS" slack="-1" dual="-0"/>
  <constraint name="C35" index="345" status="BS" slack="-1" dual="-0"/>
  <constraint name="C35" index="346" status="BS" slack="-1" dual="-0"/>
  <constraint name="C35" index="347" status="BS" slack="-1" dual="-0"/>
  <constraint name="C35" index="348" status="BS" slack="-2" dual="-0"/>
  <constraint name="C35" index="349" status="BS" slack="-2" dual="-0"/>
  <constraint name="C35" index="350" status="BS" slack="-1" dual="-0"/>
  <constraint name="C35" index="351" status="BS" slack="-2" dual="-0"/>
  <constraint name="C35" index="352" status="BS" slack="-2" dual="-0"/>
  <constraint name="C35" index="353" status="BS" slack="-1" dual="-0"/>
  <constraint name="C35" index="354" status="BS" slack="-1" dual="-0"/>
  <constraint name="C35" index="355" status="BS" slack="-1" dual="-0"/>
  <constraint name="C35" index="356" status="BS" slack="-1" dual="-0"/>
  <constraint name="C35" index="357" status="BS" slack="-1" dual="-0"/>
  <constraint name="C35" index="358" status="BS" slack="-1" dual="-0"/>
  <constraint name="C35" index="359" status="BS" slack="-2" dual="-0"/>
  <constraint name="C35" index="360" status="BS" slack="-1" dual="-0"/>
  <constraint name="C35" index="361" status="BS" slack="-2" dual="-0"/>
  <constraint name="C35" index="362" status="BS" slack="-2" dual="-0"/>
  <constraint name="C35" index="363" status="BS" slack="-1" dual="-0"/>
  <constraint name="C35" index="364" status="BS" slack="-1" dual="-0"/>
  <constraint name="C35" index="365" status="BS" slack="-1" dual="-0"/>
  <constraint name="C0" index="366" status="LL" slack="0" dual="1"/>
 </linearConstraints>
 <variables>
  <variable name="x0" index="0" status="BS" value="1" reducedCost="0"/>
  <variable name="x1" index="1" status="LL" value="0" reducedCost="0"/>
  <variable name="x2" index="2" status="LL" value="0" reducedCost="0"/>
  <variable name="x3" index="3" status="LL" value="0" reducedCost="0"/>
  <variable name="x4" index="4" status="BS" value="1" reducedCost="0"/>
  <variable name="x5" index="5" status="BS" value="1" reducedCost="0"/>
  <variable name="x6" index="6" status="LL" value="0" reducedCost="0"/>
  <variable name="x7" index="7" status="BS" value="0" reducedCost="0"/>
  <variable name="x8" index="8" status="LL" value="0" reducedCost="0"/>
 </variables>
 <objectiveValues>
  <objective index="0" name="" value="3"/>
 </objectiveValues>
</CPLEXSolution>
